p cnf 219 995
144 161 0
99 123 140 0
92 133 0
108 130 0
69 72 104 112 0
124 145 149 0
109 152 154 0
105 117 135 162 0
100 111 142 165 0
94 96 101 119 0
86 91 150 0
77 134 159 184 186 0
73 74 128 189 0
95 102 200 203 0
67 70 89 146 0
125 208 0
113 137 143 155 156 0
166 214 0
167 205 0
153 168 0
115 136 171 0
118 173 177 179 0
82 83 181 182 185 0
127 160 187 190 0
191 193 194 0
64 196 197 0
199 201 204 207 0
84 126 147 209 0
80 157 169 0
106 116 138 163 0
175 178 210 0
212 213 0
75 79 129 0
215 216 217 0
131 202 206 0
66 71 0
170 218 0
97 122 172 176 0
88 211 219 0
151 180 0
61 62 81 158 183 0
59 60 195 0
56 57 58 0
-144 -174 0
-133 -144 0
-55 -144 0
-54 -144 0
-53 -144 0
-133 -174 0
-55 -174 0
-54 -174 0
-53 -174 0
-55 -133 0
-54 -133 0
-53 -133 0
-54 -55 0
-53 -55 0
-53 -54 0
-52 -145 0
-52 -152 0
-52 -135 0
-51 -52 0
-52 -119 0
-145 -152 0
-135 -145 0
-51 -145 0
-119 -145 0
-135 -152 0
-51 -152 0
-119 -152 0
-51 -135 0
-119 -135 0
-51 -119 0
-91 -128 0
-91 -192 0
-50 -91 0
-91 -200 0
-91 -156 0
-128 -192 0
-50 -128 0
-128 -200 0
-128 -156 0
-50 -192 0
-192 -200 0
-156 -192 0
-50 -200 0
-50 -156 0
-156 -200 0
-49 -214 0
-65 -214 0
-168 -214 0
-115 -214 0
-47 -214 0
-49 -65 0
-49 -168 0
-49 -115 0
-47 -49 0
-65 -168 0
-65 -115 0
-47 -65 0
-115 -168 0
-47 -168 0
-47 -115 0
-173 -181 0
-160 -173 0
-173 -191 0
-173 -196 0
-84 -173 0
-160 -181 0
-181 -191 0
-181 -196 0
-84 -181 0
-160 -191 0
-160 -196 0
-84 -160 0
-191 -196 0
-84 -191 0
-84 -196 0
-45 -211 0
-45 -151 0
-45 -62 0
-45 -76 0
-45 -58 0
-151 -211 0
-62 -211 0
-76 -211 0
-58 -211 0
-62 -151 0
-76 -151 0
-58 -151 0
-62 -76 0
-58 -62 0
-58 -76 0
-52 -144 0
-91 -144 0
-144 -214 0
-144 -173 0
-45 -144 0
-52 -91 0
-52 -214 0
-52 -173 0
-45 -52 0
-91 -214 0
-91 -173 0
-45 -91 0
-173 -214 0
-45 -214 0
-45 -173 0
-145 -174 0
-128 -174 0
-49 -174 0
-174 -181 0
-174 -211 0
-128 -145 0
-49 -145 0
-145 -181 0
-145 -211 0
-49 -128 0
-128 -181 0
-128 -211 0
-49 -181 0
-49 -211 0
-181 -211 0
-133 -152 0
-133 -192 0
-65 -133 0
-133 -160 0
-133 -151 0
-152 -192 0
-65 -152 0
-152 -160 0
-151 -152 0
-65 -192 0
-160 -192 0
-151 -192 0
-65 -160 0
-65 -151 0
-151 -160 0
-55 -135 0
-50 -55 0
-55 -168 0
-55 -191 0
-55 -62 0
-50 -135 0
-135 -168 0
-135 -191 0
-62 -135 0
-50 -168 0
-50 -191 0
-50 -62 0
-168 -191 0
-62 -168 0
-62 -191 0
-51 -54 0
-54 -200 0
-54 -115 0
-54 -196 0
-54 -76 0
-51 -200 0
-51 -115 0
-51 -196 0
-51 -76 0
-115 -200 0
-196 -200 0
-76 -200 0
-115 -196 0
-76 -115 0
-76 -196 0
-53 -119 0
-53 -156 0
-47 -53 0
-53 -84 0
-53 -58 0
-119 -156 0
-47 -119 0
-84 -119 0
-58 -119 0
-47 -156 0
-84 -156 0
-58 -156 0
-47 -84 0
-47 -58 0
-58 -84 0
-99 -161 0
-78 -161 0
-108 -161 0
-78 -99 0
-99 -108 0
-78 -108 0
-44 -72 0
-43 -44 0
-44 -165 0
-43 -72 0
-72 -165 0
-43 -165 0
-87 -177 0
-64 -177 0
-177 -199 0
-64 -87 0
-87 -199 0
-64 -199 0
-116 -169 0
-169 -175 0
-132 -169 0
-116 -175 0
-116 -132 0
-132 -175 0
-44 -161 0
-161 -177 0
-161 -169 0
-44 -177 0
-44 -169 0
-169 -177 0
-72 -99 0
-87 -99 0
-99 -116 0
-72 -87 0
-72 -116 0
-87 -116 0
-43 -78 0
-64 -78 0
-78 -175 0
-43 -64 0
-43 -175 0
-64 -175 0
-108 -165 0
-108 -199 0
-108 -132 0
-165 -199 0
-132 -165 0
-132 -199 0
-41 -162 0
-40 -41 0
-41 -100 0
-39 -41 0
-41 -101 0
-40 -162 0
-100 -162 0
-39 -162 0
-101 -162 0
-40 -100 0
-39 -40 0
-40 -101 0
-39 -100 0
-100 -101 0
-39 -101 0
-38 -86 0
-86 -203 0
-70 -86 0
-86 -208 0
-86 -143 0
-38 -203 0
-38 -70 0
-38 -208 0
-38 -143 0
-70 -203 0
-203 -208 0
-143 -203 0
-70 -208 0
-70 -143 0
-143 -208 0
-153 -166 0
-136 -166 0
-37 -166 0
-36 -166 0
-35 -166 0
-136 -153 0
-37 -153 0
-36 -153 0
-35 -153 0
-37 -136 0
-36 -136 0
-35 -136 0
-36 -37 0
-35 -37 0
-35 -36 0
-80 -98 0
-80 -178 0
-34 -80 0
-80 -212 0
-79 -80 0
-98 -178 0
-34 -98 0
-98 -212 0
-79 -98 0
-34 -178 0
-178 -212 0
-79 -178 0
-34 -212 0
-34 -79 0
-79 -212 0
-71 -107 0
-107 -170 0
-33 -107 0
-32 -107 0
-42 -107 0
-71 -170 0
-33 -71 0
-32 -71 0
-42 -71 0
-33 -170 0
-32 -170 0
-42 -170 0
-32 -33 0
-33 -42 0
-32 -42 0
-81 -164 0
-31 -164 0
-60 -164 0
-30 -164 0
-57 -164 0
-31 -81 0
-60 -81 0
-30 -81 0
-57 -81 0
-31 -60 0
-30 -31 0
-31 -57 0
-30 -60 0
-57 -60 0
-30 -57 0
-41 -86 0
-41 -166 0
-41 -80 0
-41 -107 0
-41 -164 0
-86 -166 0
-80 -86 0
-86 -107 0
-86 -164 0
-80 -166 0
-107 -166 0
-164 -166 0
-80 -107 0
-80 -164 0
-107 -164 0
-38 -162 0
-153 -162 0
-98 -162 0
-71 -162 0
-81 -162 0
-38 -153 0
-38 -98 0
-38 -71 0
-38 -81 0
-98 -153 0
-71 -153 0
-81 -153 0
-71 -98 0
-81 -98 0
-71 -81 0
-40 -203 0
-40 -136 0
-40 -178 0
-40 -170 0
-31 -40 0
-136 -203 0
-178 -203 0
-170 -203 0
-31 -203 0
-136 -178 0
-136 -170 0
-31 -136 0
-170 -178 0
-31 -178 0
-31 -170 0
-70 -100 0
-37 -100 0
-34 -100 0
-33 -100 0
-60 -100 0
-37 -70 0
-34 -70 0
-33 -70 0
-60 -70 0
-34 -37 0
-33 -37 0
-37 -60 0
-33 -34 0
-34 -60 0
-33 -60 0
-39 -208 0
-36 -39 0
-39 -212 0
-32 -39 0
-30 -39 0
-36 -208 0
-208 -212 0
-32 -208 0
-30 -208 0
-36 -212 0
-32 -36 0
-30 -36 0
-32 -212 0
-30 -212 0
-30 -32 0
-101 -143 0
-35 -101 0
-79 -101 0
-42 -101 0
-57 -101 0
-35 -143 0
-79 -143 0
-42 -143 0
-57 -143 0
-35 -79 0
-35 -42 0
-35 -57 0
-42 -79 0
-57 -79 0
-42 -57 0
-104 -149 0
-104 -154 0
-104 -121 0
-96 -104 0
-149 -154 0
-121 -149 0
-96 -149 0
-121 -154 0
-96 -154 0
-96 -121 0
-184 -189 0
-29 -184 0
-125 -184 0
-155 -184 0
-29 -189 0
-125 -189 0
-155 -189 0
-29 -125 0
-29 -155 0
-125 -155 0
-28 -205 0
-68 -205 0
-26 -205 0
-110 -205 0
-28 -68 0
-26 -28 0
-28 -110 0
-26 -68 0
-68 -110 0
-26 -110 0
-93 -182 0
-93 -187 0
-24 -93 0
-93 -147 0
-182 -187 0
-24 -182 0
-147 -182 0
-24 -187 0
-147 -187 0
-24 -147 0
-23 -138 0
-22 -138 0
-138 -213 0
-129 -138 0
-22 -23 0
-23 -213 0
-23 -129 0
-22 -213 0
-22 -129 0
-129 -213 0
-104 -184 0
-104 -205 0
-93 -104 0
-104 -138 0
-184 -205 0
-93 -184 0
-138 -184 0
-93 -205 0
-138 -205 0
-93 -138 0
-149 -189 0
-28 -149 0
-149 -182 0
-23 -149 0
-28 -189 0
-182 -189 0
-23 -189 0
-28 -182 0
-23 -28 0
-23 -182 0
-29 -154 0
-68 -154 0
-154 -187 0
-22 -154 0
-29 -68 0
-29 -187 0
-22 -29 0
-68 -187 0
-22 -68 0
-22 -187 0
-121 -125 0
-26 -121 0
-24 -121 0
-121 -213 0
-26 -125 0
-24 -125 0
-125 -213 0
-24 -26 0
-26 -213 0
-24 -213 0
-96 -155 0
-96 -110 0
-96 -147 0
-96 -129 0
-110 -155 0
-147 -155 0
-129 -155 0
-110 -147 0
-110 -129 0
-129 -147 0
-21 -140 0
-20 -140 0
-20 -21 0
-19 -159 0
-102 -159 0
-19 -102 0
-122 -183 0
-122 -188 0
-183 -188 0
-140 -159 0
-122 -140 0
-122 -159 0
-19 -21 0
-21 -183 0
-19 -183 0
-20 -102 0
-20 -188 0
-102 -188 0
-18 -112 0
-18 -124 0
-18 -109 0
-18 -105 0
-18 -142 0
-112 -124 0
-109 -112 0
-105 -112 0
-112 -142 0
-109 -124 0
-105 -124 0
-124 -142 0
-105 -109 0
-109 -142 0
-105 -142 0
-134 -150 0
-74 -150 0
-63 -150 0
-150 -198 0
-89 -150 0
-74 -134 0
-63 -134 0
-134 -198 0
-89 -134 0
-63 -74 0
-74 -198 0
-74 -89 0
-63 -198 0
-63 -89 0
-89 -198 0
-90 -118 0
-83 -118 0
-118 -127 0
-118 -193 0
-118 -201 0
-83 -90 0
-90 -127 0
-90 -193 0
-90 -201 0
-83 -127 0
-83 -193 0
-83 -201 0
-127 -193 0
-127 -201 0
-193 -201 0
-157 -163 0
-17 -157 0
-16 -157 0
-139 -157 0
-15 -157 0
-17 -163 0
-16 -163 0
-139 -163 0
-15 -163 0
-16 -17 0
-17 -139 0
-15 -17 0
-16 -139 0
-15 -16 0
-15 -139 0
-14 -215 0
-14 -131 0
-14 -48 0
-14 -66 0
-14 -114 0
-131 -215 0
-48 -215 0
-66 -215 0
-114 -215 0
-48 -131 0
-66 -131 0
-114 -131 0
-48 -66 0
-48 -114 0
-66 -114 0
-46 -172 0
-46 -219 0
-46 -180 0
-46 -158 0
-46 -195 0
-172 -219 0
-172 -180 0
-158 -172 0
-172 -195 0
-180 -219 0
-158 -219 0
-195 -219 0
-158 -180 0
-180 -195 0
-158 -195 0
-18 -150 0
-18 -118 0
-18 -157 0
-14 -18 0
-18 -46 0
-118 -150 0
-150 -157 0
-14 -150 0
-46 -150 0
-118 -157 0
-14 -118 0
-46 -118 0
-14 -157 0
-46 -157 0
-14 -46 0
-112 -134 0
-90 -112 0
-112 -163 0
-112 -215 0
-112 -172 0
-90 -134 0
-134 -163 0
-134 -215 0
-134 -172 0
-90 -163 0
-90 -215 0
-90 -172 0
-163 -215 0
-163 -172 0
-172 -215 0
-74 -124 0
-83 -124 0
-17 -124 0
-124 -131 0
-124 -219 0
-74 -83 0
-17 -74 0
-74 -131 0
-74 -219 0
-17 -83 0
-83 -131 0
-83 -219 0
-17 -131 0
-17 -219 0
-131 -219 0
-63 -109 0
-109 -127 0
-16 -109 0
-48 -109 0
-109 -180 0
-63 -127 0
-16 -63 0
-48 -63 0
-63 -180 0
-16 -127 0
-48 -127 0
-127 -180 0
-16 -48 0
-16 -180 0
-48 -180 0
-105 -198 0
-105 -193 0
-105 -139 0
-66 -105 0
-105 -158 0
-193 -198 0
-139 -198 0
-66 -198 0
-158 -198 0
-139 -193 0
-66 -193 0
-158 -193 0
-66 -139 0
-139 -158 0
-66 -158 0
-89 -142 0
-142 -201 0
-15 -142 0
-114 -142 0
-142 -195 0
-89 -201 0
-15 -89 0
-89 -114 0
-89 -195 0
-15 -201 0
-114 -201 0
-195 -201 0
-15 -114 0
-15 -195 0
-114 -195 0
-13 -179 0
-82 -179 0
-13 -82 0
-12 -216 0
-12 -202 0
-202 -216 0
-141 -176 0
-88 -141 0
-88 -176 0
-12 -179 0
-141 -179 0
-12 -141 0
-13 -216 0
-13 -176 0
-176 -216 0
-82 -202 0
-82 -88 0
-88 -202 0
-69 -117 0
-69 -111 0
-69 -94 0
-111 -117 0
-94 -117 0
-94 -111 0
-11 -186 0
-146 -186 0
-137 -186 0
-11 -146 0
-11 -137 0
-137 -146 0
-85 -194 0
-85 -204 0
-85 -209 0
-194 -204 0
-194 -209 0
-204 -209 0
-61 -97 0
-59 -97 0
-56 -97 0
-59 -61 0
-56 -61 0
-56 -59 0
-69 -186 0
-69 -85 0
-69 -97 0
-85 -186 0
-97 -186 0
-85 -97 0
-11 -117 0
-117 -194 0
-61 -117 0
-11 -194 0
-11 -61 0
-61 -194 0
-111 -146 0
-111 -204 0
-59 -111 0
-146 -204 0
-59 -146 0
-59 -204 0
-94 -137 0
-94 -209 0
-56 -94 0
-137 -209 0
-56 -137 0
-56 -209 0
-10 -123 0
-92 -123 0
-9 -123 0
-123 -130 0
-8 -123 0
-10 -92 0
-9 -10 0
-10 -130 0
-8 -10 0
-9 -92 0
-92 -130 0
-8 -92 0
-9 -130 0
-8 -9 0
-8 -130 0
-73 -77 0
-7 -77 0
-77 -95 0
-67 -77 0
-77 -113 0
-7 -73 0
-73 -95 0
-67 -73 0
-73 -113 0
-7 -95 0
-7 -67 0
-7 -113 0
-67 -95 0
-95 -113 0
-67 -113 0
-103 -167 0
-148 -167 0
-167 -171 0
-6 -167 0
-120 -167 0
-103 -148 0
-103 -171 0
-6 -103 0
-103 -120 0
-148 -171 0
-6 -148 0
-120 -148 0
-6 -171 0
-120 -171 0
-6 -120 0
-5 -185 0
-5 -190 0
-5 -197 0
-5 -207 0
-5 -126 0
-185 -190 0
-185 -197 0
-185 -207 0
-126 -185 0
-190 -197 0
-190 -207 0
-126 -190 0
-197 -207 0
-126 -197 0
-126 -207 0
-4 -106 0
-3 -106 0
-106 -210 0
-2 -106 0
-75 -106 0
-3 -4 0
-4 -210 0
-2 -4 0
-4 -75 0
-3 -210 0
-2 -3 0
-3 -75 0
-2 -210 0
-75 -210 0
-2 -75 0
-206 -217 0
-27 -217 0
-217 -218 0
-1 -217 0
-25 -217 0
-27 -206 0
-206 -218 0
-1 -206 0
-25 -206 0
-27 -218 0
-1 -27 0
-25 -27 0
-1 -218 0
-25 -218 0
-1 -25 0
-77 -123 0
-123 -167 0
-5 -123 0
-106 -123 0
-123 -217 0
-77 -167 0
-5 -77 0
-77 -106 0
-77 -217 0
-5 -167 0
-106 -167 0
-167 -217 0
-5 -106 0
-5 -217 0
-106 -217 0
-10 -73 0
-10 -103 0
-10 -185 0
-4 -10 0
-10 -206 0
-73 -103 0
-73 -185 0
-4 -73 0
-73 -206 0
-103 -185 0
-4 -103 0
-103 -206 0
-4 -185 0
-185 -206 0
-4 -206 0
-7 -92 0
-92 -148 0
-92 -190 0
-3 -92 0
-27 -92 0
-7 -148 0
-7 -190 0
-3 -7 0
-7 -27 0
-148 -190 0
-3 -148 0
-27 -148 0
-3 -190 0
-27 -190 0
-3 -27 0
-9 -95 0
-9 -171 0
-9 -197 0
-9 -210 0
-9 -218 0
-95 -171 0
-95 -197 0
-95 -210 0
-95 -218 0
-171 -197 0
-171 -210 0
-171 -218 0
-197 -210 0
-197 -218 0
-210 -218 0
-67 -130 0
-6 -130 0
-130 -207 0
-2 -130 0
-1 -130 0
-6 -67 0
-67 -207 0
-2 -67 0
-1 -67 0
-6 -207 0
-2 -6 0
-1 -6 0
-2 -207 0
-1 -207 0
-1 -2 0
-8 -113 0
-8 -120 0
-8 -126 0
-8 -75 0
-8 -25 0
-113 -120 0
-113 -126 0
-75 -113 0
-25 -113 0
-120 -126 0
-75 -120 0
-25 -120 0
-75 -126 0
-25 -126 0
-25 -75 0
